% demand
num_movements = 25;
loading_factor = [1500, 1200, 1800, 1100, 1150, 1300, 1300, 1900, 1700, 1350, 1150, 1400, 1750, 1550, 1200, 1100, 800, 1100, 1900, 1100, 1800, 1350, 1750, 1250, 900];
pickup_time = [0, 0, 0, 0, 0, 1, 1, 1, 2, 2, 2, 3, 3, 3, 4, 5, 7, 8, 9, 9, 11, 11, 11, 12, 12];
delivery_time = [3, 1, 1, 1, 1, 2, 3, 2, 3, 3, 4, 6, 8, 8, 7, 6, 8, 14, 10, 10, 14, 12, 12, 14, 13];

% transporter definition
total_capacity = 7000;
num_decks = 3;
capacity = [3000, 1000, 3000];

% ways out of decks
num_ways_out = 1;
paths_out = array3d(decks, ways_out, decks, [
% ways out of deck d1
2, 3, 0, 

% ways out of deck d2
3, 0, 0, 

% ways out of deck d3
0, 0, 0,	

]);

